(set-logic QF_LRA)
(declare-fun T1 () Real )
(declare-fun T2 () Real )
(declare-fun T3 () Real )
(declare-fun T4 () Real )
(declare-fun T5 () Real )
(declare-fun T6 () Real )
(declare-fun Z () Real )
(declare-fun k () Real )
(assert (let
(( $goal (>= Z k) ))
(let
((
$phi ( and 
(or ( <= ( + T1 76 ) T2 ) ( <= ( + T2 21 ) T1 ) )
(or ( <= ( + T1 100 )  ( + T2 21 ) ) ( <= ( + T2 45 )( + T1 76 ) ) )
(or ( <= ( + T1 132 )  ( + T2 45 ) ) ( <= ( + T2 50 )( + T1 100 ) ) )
(or ( <= ( + T1 176 )  ( + T2 50 ) ) ( <= ( + T2 107 )( + T1 132 ) ) )
(or ( <= ( + T1 76 ) T3 ) ( <= ( + T3 1 ) T1 ) )
(or ( <= ( + T1 100 )  ( + T3 1 ) ) ( <= ( + T3 21 )( + T1 76 ) ) )
(or ( <= ( + T1 132 )  ( + T3 21 ) ) ( <= ( + T3 89 )( + T1 100 ) ) )
(or ( <= ( + T1 176 )  ( + T3 89 ) ) ( <= ( + T3 137 )( + T1 132 ) ) )
(or ( <= ( + T1 76 ) T4 ) ( <= ( + T4 14 ) T1 ) )
(or ( <= ( + T1 100 )  ( + T4 14 ) ) ( <= ( + T4 91 )( + T1 76 ) ) )
(or ( <= ( + T1 132 )  ( + T4 91 ) ) ( <= ( + T4 111 )( + T1 100 ) ) )
(or ( <= ( + T1 176 )  ( + T4 111 ) ) ( <= ( + T4 195 )( + T1 132 ) ) )
(or ( <= ( + T1 76 ) T5 ) ( <= ( + T5 100 ) T1 ) )
(or ( <= ( + T1 100 )  ( + T5 100 ) ) ( <= ( + T5 162 )( + T1 76 ) ) )
(or ( <= ( + T1 132 )  ( + T5 162 ) ) ( <= ( + T5 244 )( + T1 100 ) ) )
(or ( <= ( + T1 176 )  ( + T5 244 ) ) ( <= ( + T5 266 )( + T1 132 ) ) )
(or ( <= ( + T1 76 ) T6 ) ( <= ( + T6 39 ) T1 ) )
(or ( <= ( + T1 100 )  ( + T6 39 ) ) ( <= ( + T6 119 )( + T1 76 ) ) )
(or ( <= ( + T1 132 )  ( + T6 119 ) ) ( <= ( + T6 205 )( + T1 100 ) ) )
(or ( <= ( + T1 176 )  ( + T6 205 ) ) ( <= ( + T6 230 )( + T1 132 ) ) )
(or ( <= ( + T2 21 ) T3 ) ( <= ( + T3 1 ) T2 ) )
(or ( <= ( + T2 45 )  ( + T3 1 ) ) ( <= ( + T3 21 )( + T2 21 ) ) )
(or ( <= ( + T2 50 )  ( + T3 21 ) ) ( <= ( + T3 89 )( + T2 45 ) ) )
(or ( <= ( + T2 107 )  ( + T3 89 ) ) ( <= ( + T3 137 )( + T2 50 ) ) )
(or ( <= ( + T2 21 ) T4 ) ( <= ( + T4 14 ) T2 ) )
(or ( <= ( + T2 45 )  ( + T4 14 ) ) ( <= ( + T4 91 )( + T2 21 ) ) )
(or ( <= ( + T2 50 )  ( + T4 91 ) ) ( <= ( + T4 111 )( + T2 45 ) ) )
(or ( <= ( + T2 107 )  ( + T4 111 ) ) ( <= ( + T4 195 )( + T2 50 ) ) )
(or ( <= ( + T2 21 ) T5 ) ( <= ( + T5 100 ) T2 ) )
(or ( <= ( + T2 45 )  ( + T5 100 ) ) ( <= ( + T5 162 )( + T2 21 ) ) )
(or ( <= ( + T2 50 )  ( + T5 162 ) ) ( <= ( + T5 244 )( + T2 45 ) ) )
(or ( <= ( + T2 107 )  ( + T5 244 ) ) ( <= ( + T5 266 )( + T2 50 ) ) )
(or ( <= ( + T2 21 ) T6 ) ( <= ( + T6 39 ) T2 ) )
(or ( <= ( + T2 45 )  ( + T6 39 ) ) ( <= ( + T6 119 )( + T2 21 ) ) )
(or ( <= ( + T2 50 )  ( + T6 119 ) ) ( <= ( + T6 205 )( + T2 45 ) ) )
(or ( <= ( + T2 107 )  ( + T6 205 ) ) ( <= ( + T6 230 )( + T2 50 ) ) )
(or ( <= ( + T3 1 ) T4 ) ( <= ( + T4 14 ) T3 ) )
(or ( <= ( + T3 21 )  ( + T4 14 ) ) ( <= ( + T4 91 )( + T3 1 ) ) )
(or ( <= ( + T3 89 )  ( + T4 91 ) ) ( <= ( + T4 111 )( + T3 21 ) ) )
(or ( <= ( + T3 137 )  ( + T4 111 ) ) ( <= ( + T4 195 )( + T3 89 ) ) )
(or ( <= ( + T3 1 ) T5 ) ( <= ( + T5 100 ) T3 ) )
(or ( <= ( + T3 21 )  ( + T5 100 ) ) ( <= ( + T5 162 )( + T3 1 ) ) )
(or ( <= ( + T3 89 )  ( + T5 162 ) ) ( <= ( + T5 244 )( + T3 21 ) ) )
(or ( <= ( + T3 137 )  ( + T5 244 ) ) ( <= ( + T5 266 )( + T3 89 ) ) )
(or ( <= ( + T3 1 ) T6 ) ( <= ( + T6 39 ) T3 ) )
(or ( <= ( + T3 21 )  ( + T6 39 ) ) ( <= ( + T6 119 )( + T3 1 ) ) )
(or ( <= ( + T3 89 )  ( + T6 119 ) ) ( <= ( + T6 205 )( + T3 21 ) ) )
(or ( <= ( + T3 137 )  ( + T6 205 ) ) ( <= ( + T6 230 )( + T3 89 ) ) )
(or ( <= ( + T4 14 ) T5 ) ( <= ( + T5 100 ) T4 ) )
(or ( <= ( + T4 91 )  ( + T5 100 ) ) ( <= ( + T5 162 )( + T4 14 ) ) )
(or ( <= ( + T4 111 )  ( + T5 162 ) ) ( <= ( + T5 244 )( + T4 91 ) ) )
(or ( <= ( + T4 195 )  ( + T5 244 ) ) ( <= ( + T5 266 )( + T4 111 ) ) )
(or ( <= ( + T4 14 ) T6 ) ( <= ( + T6 39 ) T4 ) )
(or ( <= ( + T4 91 )  ( + T6 39 ) ) ( <= ( + T6 119 )( + T4 14 ) ) )
(or ( <= ( + T4 111 )  ( + T6 119 ) ) ( <= ( + T6 205 )( + T4 91 ) ) )
(or ( <= ( + T4 195 )  ( + T6 205 ) ) ( <= ( + T6 230 )( + T4 111 ) ) )
(or ( <= ( + T5 100 ) T6 ) ( <= ( + T6 39 ) T5 ) )
(or ( <= ( + T5 162 )  ( + T6 39 ) ) ( <= ( + T6 119 )( + T5 100 ) ) )
(or ( <= ( + T5 244 )  ( + T6 119 ) ) ( <= ( + T6 205 )( + T5 162 ) ) )
(or ( <= ( + T5 266 )  ( + T6 205 ) ) ( <= ( + T6 230 )( + T5 244 ) ) )
( <= ( + T1 176 ) Z)
( <= ( + T2 107 ) Z)
( <= ( + T3 137 ) Z)
( <= ( + T4 195 ) Z)
( <= ( + T5 266 ) Z)
( <= ( + T6 230 ) Z)
( >= T1 0 )
( >= T2 0 )
( >= T3 0 )
( >= T4 0 )
( >= T5 0 )
( >= T6 0 )
) )
)(=> $phi $goal))))